Set parameter TokenServer to value "opt-license.discovery.wisc.edu"
Set parameter TimeLimit to value 600
Gurobi Optimizer version 9.5.1 build v9.5.1rc2 (linux64)
Thread count: 40 physical cores, 80 logical processors, using up to 32 threads
Optimize a model with 676411 rows, 1210300 columns and 3888222 nonzeros
Model fingerprint: 0x80467b73
Variable types: 1205400 continuous, 4900 integer (4900 binary)
Coefficient statistics:
  Matrix range     [1e+00, 2e+03]
  Objective range  [1e+00, 1e+01]
  Bounds range     [1e+00, 1e+00]
  RHS range        [1e+00, 6e+00]
Presolve removed 23668 rows and 71730 columns (presolve time = 5s) ...
Presolve removed 23668 rows and 71730 columns (presolve time = 10s) ...
Presolve removed 23668 rows and 71730 columns (presolve time = 16s) ...
Presolve removed 23668 rows and 71730 columns (presolve time = 35s) ...
Presolve removed 23668 rows and 71730 columns
Presolve time: 36.08s
Presolved: 652743 rows, 1138570 columns, 3761938 nonzeros
Variable types: 1133670 continuous, 4900 integer (4900 binary)

Deterministic concurrent LP optimizer: primal simplex, dual simplex, and barrier
Showing barrier log only...

Root barrier log...

Elapsed ordering time = 5s
Ordering time: 13.59s

Barrier performed 0 iterations in 74.47 seconds (21.27 work units)
Barrier solve interrupted - model solved by another algorithm

Concurrent spin time: 12.69s (can be avoided by choosing Method=3)

Solved with dual simplex

Root relaxation: objective 9.205411e+01, 3129 iterations, 23.53 seconds (4.73 work units)
Total elapsed time = 77.99s

    Nodes    |    Current Node    |     Objective Bounds      |     Work
 Expl Unexpl |  Obj  Depth IntInf | Incumbent    BestBd   Gap | It/Node Time

     0     0   92.05411    0  176          -   92.05411      -     -   91s
     0     0   92.21214    0  203          -   92.21214      -     -  151s
     0     0   92.21566    0  203          -   92.21566      -     -  159s
     0     0   92.35587    0  192          -   92.35587      -     -  177s
H    0     0                      92.5378732   92.35587  0.20%     -  182s
     0     0   92.41652    0   79   92.53787   92.41652  0.13%     -  191s
     0     0   92.47514    0   28   92.53787   92.47514  0.07%     -  204s
     0     0     cutoff    0        92.53787   92.53787  0.00%     -  213s

Explored 1 nodes (4220 simplex iterations) in 213.94 seconds (55.59 work units)
Thread count was 32 (of 80 available processors)

Solution count 1: 92.5379 

Optimal solution found (tolerance 1.00e-04)
Best objective 9.253787324945e+01, best bound 9.253787324945e+01, gap 0.0000%
